44681.18
29 26 24 21 23 22 7 20 19 8 16 17 18 15 14 11 13 10 12 9 55 58 59 54 57 56 61 60 62 63 64 65 66 69 68 71 67 70 73 76 77 74 72 75 78 81 80 83 79 82 85 88 89 86 84 87 90 93 92 95 91 94 97 100 101 96 98 99 102 105 104 0 106 103 1 52 50 53 51 49 46 48 47 2 45 3 42 43 44 41 40 37 4 35 38 39 36 34 31 33 32 5 30 27 6 25 28